c random clauses
p cnf 17 16
-17 -16 -14 -9 -3 5 6 15 0
-17 -14 -11 -10 -3 2 4 5 0
-16 -14 -3 2 6 7 13 17 0
-16 -12 -10 -6 -1 8 13 17 0
-16 -9 -3 -1 11 12 13 14 0
-15 -14 -13 -5 -3 4 7 10 0
-15 -14 -4 2 10 11 12 17 0
-14 -13 -11 -8 -6 1 3 5 0
-14 -13 -11 -5 -2 1 4 9 0
-14 -11 -5 -1 6 13 16 17 0
-14 -10 -7 -3 1 6 8 17 0
-14 -9 -1 2 4 5 11 17 0
-13 -12 -10 -4 6 7 8 16 0
-13 -11 -3 -2 -1 5 10 14 0
-12 -11 -5 2 4 6 9 10 0
-10 -9 -7 3 6 8 11 15 0
